g3 1 1 0	# problem tp117r2
 15 5 1 0 0	# vars, constraints, objectives, ranges, eqns
 5 1	# nonlinear constraints, objectives
 0 0	# network constraints: nonlinear, linear
 5 5 5	# nonlinear vars in constraints, objectives, both
 0 0 0 1	# linear network variables; functions; arith, flags
 0 0 0 0 0	# discrete variables: binary, integer, nonlinear (b,c,o)
 62 15	# nonzeros in Jacobian, gradients
 0 0	# max name lengths: constraints, variables
 0 0 0 5 1	# common exprs: b,c,o,c1,o1
b
2 0
2 0
2 0
2 0
2 0
2 0
2 0
2 0
2 0
2 0
2 0
2 0
2 0
2 0
2 0
x15
0 0.001
1 0.001
2 0.001
3 0.001
4 0.001
5 0.001
6 0.001
7 0.001
8 0.001
9 0.001
10 0.001
11 60
12 0.001
13 0.001
14 0.001
r
2 15
2 27
2 36
2 18
2 12
V15 0 1
o2
n12
o5
v0
n2
C0
v15
V16 0 2
o2
n24
o5
v1
n2
C1
v16
V17 0 3
o2
n30
o5
v2
n2
C2
v17
V18 0 4
o2
n18
o5
v3
n2
C3
v18
V19 0 5
o2
n6
o5
v4
n2
C4
v19
V20 0 6
o54
20
o2
n30
o5
v0
n2
o16
o2
o2
n40
v0
v1
o16
o2
o2
n20
v0
v2
o2
o2
n64
v0
v3
o16
o2
o2
n20
v0
v4
o2
n39
o5
v1
n2
o16
o2
o2
n12
v1
v2
o16
o2
o2
n62
v1
v3
o2
o2
n64
v1
v4
o2
n10
o5
v2
n2
o16
o2
o2
n12
v2
v3
o16
o2
o2
n20
v2
v4
o2
n39
o5
v3
n2
o16
o2
o2
n40
v3
v4
o2
n30
o5
v4
n2
o2
n8
o5
v0
n3
o2
n16
o5
v1
n3
o2
n20
o5
v2
n3
o2
n12
o5
v3
n3
o2
n4
o5
v4
n3
O0 0
v20
k14
5
10
15
20
25
28
31
33
36
40
42
47
52
57
J0 12
0 60
1 -40
2 -20
3 64
4 -20
5 16
7 3.5
10 -2
11 1
12 1
13 -1
14 -1
J1 13
0 -40
1 78
2 -12
3 -62
4 64
5 -2
6 2
8 2
9 9
11 1
12 2
13 -2
14 -1
J2 12
0 -20
1 -12
2 20
3 -12
4 -20
7 -2
9 2
10 4
11 1
12 3
13 -3
14 -1
J3 13
0 64
1 -62
2 -12
3 78
4 -40
5 -1
6 -0.4
8 4
9 -1
11 1
12 2
13 -4
14 -1
J4 12
0 -20
1 64
2 -20
3 -40
4 60
6 -2
8 1
9 2.8
11 1
12 1
13 -5
14 -1
G0 15
0 0
1 0
2 0
3 0
4 0
5 40
6 2
7 0.25
8 4
9 4
10 1
11 40
12 60
13 -5
14 -1
